====================================================================================================================
File name: 100_20_46_15.def
Creation date: Mon Nov 24 20:40:29 CET 2014
Website: http://imopse.ii.pwr.edu.pl/
Reference:
Myszkowski P. B., Skowronski M. E., Olech L., Oslizlo K.,
Hybrid Ant Colony Optimization in solving Multi-Skill Resource-Constrained Project Scheduling Problem,
Soft Computing, DOI: DOI 10.1007/s00500-014-1455-x
====================================================================================================================
General characteristics:
Tasks: 100
Resources: 20
Precedence relations: 46
Number of skill types: 15
====================================================================================================================
ResourceID 	 Salary 	 Skills
1	 	 	37.1	 	 Q11: 2 	  Q14: 2 	  Q13: 2 	  Q4: 2 	  Q3: 1 	  Q7: 2
2	 	 	27.2	 	 Q1: 2 	  Q5: 1 	  Q10: 1 	  Q9: 0 	  Q0: 1 	  Q12: 2
3	 	 	67.4	 	 Q4: 0 	  Q5: 2 	  Q3: 1 	  Q0: 0 	  Q2: 0 	  Q8: 1
4	 	 	10.0	 	 Q13: 1 	  Q1: 1 	  Q5: 1 	  Q11: 2 	  Q8: 0 	  Q10: 0
5	 	 	40.3	 	 Q4: 2 	  Q12: 0 	  Q8: 2 	  Q0: 2 	  Q5: 0 	  Q9: 1
6	 	 	63.5	 	 Q0: 0 	  Q5: 0 	  Q8: 0 	  Q14: 2 	  Q4: 0 	  Q7: 1
7	 	 	83.7	 	 Q14: 1 	  Q10: 0 	  Q1: 0 	  Q2: 2 	  Q8: 1 	  Q11: 0
8	 	 	90.3	 	 Q10: 1 	  Q11: 2 	  Q1: 2 	  Q6: 0 	  Q3: 0 	  Q2: 2
9	 	 	62.7	 	 Q0: 0 	  Q3: 0 	  Q6: 2 	  Q14: 2 	  Q5: 0 	  Q4: 1
10	 	 	81.7	 	 Q14: 0 	  Q3: 0 	  Q0: 1 	  Q6: 0 	  Q11: 0 	  Q10: 2
11	 	 	77.6	 	 Q1: 1 	  Q4: 2 	  Q8: 1 	  Q0: 2 	  Q9: 1 	  Q14: 0
12	 	 	29.6	 	 Q5: 2 	  Q7: 1 	  Q3: 1 	  Q14: 1 	  Q10: 2 	  Q13: 1
13	 	 	77.2	 	 Q2: 1 	  Q14: 2 	  Q6: 0 	  Q10: 2 	  Q1: 0 	  Q8: 0
14	 	 	18.4	 	 Q1: 1 	  Q8: 0 	  Q10: 2 	  Q2: 0 	  Q3: 2 	  Q14: 2
15	 	 	44.8	 	 Q10: 2 	  Q13: 0 	  Q6: 2 	  Q7: 0 	  Q14: 1 	  Q8: 2
16	 	 	45.2	 	 Q6: 0 	  Q14: 0 	  Q10: 0 	  Q11: 1 	  Q9: 1 	  Q3: 1
17	 	 	21.2	 	 Q11: 1 	  Q9: 1 	  Q10: 1 	  Q1: 0 	  Q12: 1 	  Q5: 0
18	 	 	76.3	 	 Q3: 1 	  Q11: 0 	  Q2: 0 	  Q13: 1 	  Q8: 1 	  Q1: 2
19	 	 	73.4	 	 Q14: 0 	  Q8: 2 	  Q0: 1 	  Q3: 0 	  Q7: 0 	  Q13: 2
20	 	 	64.1	 	 Q8: 0 	  Q6: 2 	  Q2: 0 	  Q13: 1 	  Q11: 0 	  Q3: 1
====================================================================================================================
TaskID 	 Duration 	 Skill 	 Predecessor IDs
1	 	 	19	 Q8: 1
2	 	 	37	 Q3: 0
3	 	 	35	 Q7: 2
4	 	 	36	 Q8: 2
5	 	 	9	 Q5: 0
6	 	 	19	 Q0: 1
7	 	 	10	 Q0: 2
8	 	 	31	 Q7: 2
9	 	 	19	 Q4: 0
10	 	 	28	 Q0: 1
11	 	 	18	 Q10: 0
12	 	 	37	 Q3: 2
13	 	 	25	 Q2: 2
14	 	 	22	 Q7: 2	 	7
15	 	 	39	 Q8: 0
16	 	 	31	 Q11: 0
17	 	 	39	 Q7: 1
18	 	 	17	 Q14: 0
19	 	 	33	 Q10: 1
20	 	 	38	 Q3: 0
21	 	 	38	 Q0: 1
22	 	 	27	 Q1: 2
23	 	 	13	 Q12: 1
24	 	 	20	 Q3: 1
25	 	 	40	 Q13: 2
26	 	 	34	 Q8: 0
27	 	 	36	 Q3: 0
28	 	 	9	 Q6: 0
29	 	 	13	 Q2: 2
30	 	 	34	 Q7: 0	 	16
31	 	 	12	 Q0: 1
32	 	 	33	 Q0: 1
33	 	 	14	 Q11: 1	 	1
34	 	 	20	 Q13: 2
35	 	 	12	 Q11: 1
36	 	 	34	 Q8: 0	 	27
37	 	 	40	 Q13: 2
38	 	 	40	 Q14: 0
39	 	 	13	 Q12: 1
40	 	 	25	 Q10: 2
41	 	 	22	 Q5: 2
42	 	 	39	 Q6: 0	 	16
43	 	 	14	 Q0: 0
44	 	 	19	 Q6: 2
45	 	 	37	 Q2: 0
46	 	 	27	 Q14: 1
47	 	 	15	 Q1: 2	 	26
48	 	 	36	 Q13: 2	 	9
49	 	 	14	 Q11: 0
50	 	 	29	 Q11: 1
51	 	 	38	 Q10: 0
52	 	 	11	 Q6: 2	 	15
53	 	 	19	 Q5: 1
54	 	 	21	 Q12: 2	 	26
55	 	 	18	 Q3: 1	 	23
56	 	 	31	 Q4: 2
57	 	 	24	 Q3: 1	 	27	36	17
58	 	 	33	 Q5: 2
59	 	 	32	 Q13: 2	 	46
60	 	 	16	 Q11: 1	 	52
61	 	 	16	 Q14: 0	 	6	28	44
62	 	 	31	 Q8: 2	 	23
63	 	 	15	 Q9: 0
64	 	 	15	 Q1: 0	 	2
65	 	 	28	 Q13: 2	 	36
66	 	 	22	 Q4: 0	 	55
67	 	 	35	 Q10: 0
68	 	 	32	 Q10: 1	 	63
69	 	 	32	 Q5: 0	 	16	34
70	 	 	21	 Q6: 0	 	62
71	 	 	34	 Q14: 1	 	39	34
72	 	 	27	 Q8: 0
73	 	 	37	 Q13: 2
74	 	 	33	 Q2: 2	 	24
75	 	 	40	 Q8: 2
76	 	 	26	 Q4: 0
77	 	 	32	 Q6: 0
78	 	 	31	 Q5: 2
79	 	 	31	 Q6: 0
80	 	 	15	 Q13: 0
81	 	 	36	 Q3: 2	 	76
82	 	 	36	 Q14: 2
83	 	 	31	 Q9: 0	 	20
84	 	 	26	 Q11: 1	 	30	38	28
85	 	 	35	 Q1: 2	 	41
86	 	 	21	 Q9: 1
87	 	 	31	 Q11: 2
88	 	 	21	 Q0: 1
89	 	 	25	 Q8: 2
90	 	 	28	 Q8: 1	 	73
91	 	 	40	 Q12: 0
92	 	 	17	 Q5: 1	 	59	79
93	 	 	13	 Q1: 1
94	 	 	38	 Q3: 0
95	 	 	14	 Q6: 2	 	89
96	 	 	39	 Q12: 0	 	24	71
97	 	 	35	 Q8: 0	 	82	57
98	 	 	20	 Q14: 1	 	76	68	43
99	 	 	23	 Q9: 0
100	 	 	18	 Q0: 0
====================================================================================================================
